500
1000
800
800
797
794
792
786
784
783
783
780
779
778
777
774
773
773
772
771
771
768
768
765
765
763
761
761
761
759
758
755
753
752
752
752
751
750
750
750
748
747
747
746
745
742
741
741
741
740
739
737
736
735
730
726
725
724
722
721
719
718
714
713
711
709
708
705
704
703
702
698
698
697
697
696
696
693
693
693
692
690
687
687
682
682
682
681
680
677
676
675
674
671
671
670
669
668
665
663
656
649
645
643
642
640
639
638
636
635
635
634
633
632
631
629
625
625
623
621
621
619
619
619
616
616
616
616
613
612
609
602
602
601
601
600
599
597
595
593
592
586
586
585
585
579
578
578
578
578
575
574
572
570
569
569
565
564
564
564
563
562
559
558
558
555
555
554
552
552
552
551
551
551
547
546
546
543
543
540
537
537
537
536
536
534
534
534
532
531
531
531
530
529
529
528
527
527
526
525
524
524
523
522
522
522
520
517
514
511
511
510
509
506
506
506
504
504
503
502
500
497
496
495
490
490
489
488
488
484
483
482
482
481
477
477
476
474
473
471
471
468
467
466
465
463
463
462
461
458
455
454
453
453
452
450
450
449
447
444
443
443
443
441
441
441
439
437
436
436
436
435
435
434
434
433
431
429
429
421
421
420
418
418
417
414
414
412
411
410
410
410
410
409
409
409
408
406
402
401
400
399
399
397
396
392
391
390
390
384
384
382
381
379
378
374
374
372
372
371
368
366
365
364
363
363
362
360
360
360
360
358
357
353
351
351
351
350
349
349
349
348
348
344
342
341
340
340
339
338
335
333
330
329
328
328
326
326
322
321
319
318
314
312
311
306
306
305
305
302
302
300
300
300
298
296
296
296
295
295
293
292
290
290
289
288
286
285
284
283
283
282
281
280
280
277
274
274
267
267
263
262
262
256
255
253
253
252
248
247
246
244
241
240
239
238
238
237
236
235
233
233
232
230
230
229
228
228
227
223
222
221
221
220
219
219
219
218
214
213
212
206
206
204
204
203
201
200
200
198
198
196
192
188
184
182
180
178
177
177
176
173
172
171
169
166
165
164
161
161
159
158
156
155
155
153
152
148
146
139
136
135
132
129
125
125
123
121
116
115
115
115
111
110
110
109
106
104
102
102
101
101
